(set-info :smt-lib-version 2.6)
(set-logic QF_NIA)
(set-info :source |
Generated by: Cristina Borralleras, Daniel Larraz, Albert Oliveras, Enric Rodriguez-Carbonell, Albert Rubio
Generated on: 2017-04-27
Generator: VeryMax
Application: Termination proving
Target solver: barcelogic
|)
(set-info :license "https://creativecommons.org/licenses/by/4.0/")
(set-info :category "industrial")
(set-info :status unknown)
(declare-fun Nl5arg11 () Int)
(declare-fun Nl5arg21 () Int)
(declare-fun Nl5arg31 () Int)
(declare-fun Nl5arg12 () Int)
(declare-fun Nl5arg22 () Int)
(declare-fun Nl5arg32 () Int)
(declare-fun Nl5arg13 () Int)
(declare-fun Nl5arg23 () Int)
(declare-fun Nl5arg33 () Int)
(declare-fun lam0n0 () Int)
(declare-fun lam0n1 () Int)
(declare-fun lam0n2 () Int)
(declare-fun lam0n3 () Int)
(declare-fun lam0n4 () Int)
(declare-fun lam0n5 () Int)
(declare-fun lam0n6 () Int)
(declare-fun lam0n7 () Int)
(declare-fun UndefCntr0_CT () Int)
(declare-fun Nl5CT1 () Int)
(declare-fun Nl5CT2 () Int)
(declare-fun Nl5CT3 () Int)
(declare-fun UndefCntr0_arg1 () Int)
(declare-fun UndefCntr0_arg2 () Int)
(declare-fun UndefCntr0_arg3 () Int)
(declare-fun UndefCntr0_undef127 () Int)
(declare-fun UndefCntr0_undef128 () Int)
(declare-fun UndefCntr0_undef129 () Int)
(declare-fun UndefCntr0_undef132 () Int)
(declare-fun lam1n0 () Int)
(declare-fun lam1n1 () Int)
(declare-fun lam1n2 () Int)
(declare-fun lam1n3 () Int)
(declare-fun lam1n4 () Int)
(declare-fun lam1n5 () Int)
(declare-fun lam1n6 () Int)
(declare-fun lam1n7 () Int)
(declare-fun lam2n0 () Int)
(declare-fun lam2n1 () Int)
(declare-fun lam2n2 () Int)
(declare-fun lam2n3 () Int)
(declare-fun lam2n4 () Int)
(declare-fun lam2n5 () Int)
(declare-fun lam2n6 () Int)
(declare-fun lam2n7 () Int)
(declare-fun lam3n0 () Int)
(declare-fun lam3n1 () Int)
(declare-fun lam3n2 () Int)
(declare-fun lam3n3 () Int)
(declare-fun lam3n4 () Int)
(declare-fun lam3n5 () Int)
(declare-fun lam3n6 () Int)
(declare-fun lam3n7 () Int)
(declare-fun lam4n0 () Int)
(declare-fun lam4n1 () Int)
(declare-fun lam4n2 () Int)
(declare-fun lam4n3 () Int)
(declare-fun lam4n4 () Int)
(declare-fun lam4n5 () Int)
(declare-fun lam4n6 () Int)
(declare-fun lam4n7 () Int)
(declare-fun UndefCntr1_CT () Int)
(declare-fun UndefCntr1_arg1 () Int)
(declare-fun UndefCntr1_arg2 () Int)
(declare-fun UndefCntr1_arg3 () Int)
(declare-fun UndefCntr1_undef133 () Int)
(declare-fun UndefCntr1_undef134 () Int)
(declare-fun UndefCntr1_undef135 () Int)
(declare-fun UndefCntr1_undef138 () Int)
(declare-fun lam5n0 () Int)
(declare-fun lam5n1 () Int)
(declare-fun lam5n2 () Int)
(declare-fun lam5n3 () Int)
(declare-fun lam5n4 () Int)
(declare-fun lam5n5 () Int)
(declare-fun lam5n6 () Int)
(declare-fun lam5n7 () Int)
(declare-fun lam6n0 () Int)
(declare-fun lam6n1 () Int)
(declare-fun lam6n2 () Int)
(declare-fun lam6n3 () Int)
(declare-fun lam6n4 () Int)
(declare-fun lam6n5 () Int)
(declare-fun lam6n6 () Int)
(declare-fun lam6n7 () Int)
(declare-fun lam7n0 () Int)
(declare-fun lam7n1 () Int)
(declare-fun lam7n2 () Int)
(declare-fun lam7n3 () Int)
(declare-fun lam7n4 () Int)
(declare-fun lam7n5 () Int)
(declare-fun lam7n6 () Int)
(declare-fun lam7n7 () Int)
(declare-fun lam8n0 () Int)
(declare-fun lam8n1 () Int)
(declare-fun lam8n2 () Int)
(declare-fun lam8n3 () Int)
(declare-fun lam8n4 () Int)
(declare-fun lam8n5 () Int)
(declare-fun lam9n0 () Int)
(declare-fun lam9n1 () Int)
(declare-fun lam9n2 () Int)
(declare-fun lam9n3 () Int)
(declare-fun lam9n4 () Int)
(declare-fun lam9n5 () Int)
(declare-fun lam10n0 () Int)
(declare-fun lam10n1 () Int)
(declare-fun lam10n2 () Int)
(declare-fun lam10n3 () Int)
(declare-fun lam10n4 () Int)
(declare-fun lam10n5 () Int)
(declare-fun lam11n0 () Int)
(declare-fun lam11n1 () Int)
(declare-fun lam11n2 () Int)
(declare-fun lam11n3 () Int)
(declare-fun lam11n4 () Int)
(declare-fun lam11n5 () Int)
(declare-fun lam11n6 () Int)
(declare-fun lam11n7 () Int)
(declare-fun lam11n8 () Int)
(declare-fun lam11n9 () Int)
(declare-fun lam12n0 () Int)
(declare-fun lam12n1 () Int)
(declare-fun lam12n2 () Int)
(declare-fun lam12n3 () Int)
(declare-fun lam12n4 () Int)
(declare-fun lam12n5 () Int)
(declare-fun lam12n6 () Int)
(declare-fun lam12n7 () Int)
(declare-fun lam12n8 () Int)
(declare-fun lam12n9 () Int)
(declare-fun lam13n0 () Int)
(declare-fun lam13n1 () Int)
(declare-fun lam13n2 () Int)
(declare-fun lam13n3 () Int)
(declare-fun lam13n4 () Int)
(declare-fun lam13n5 () Int)
(declare-fun lam13n6 () Int)
(declare-fun lam13n7 () Int)
(declare-fun lam13n8 () Int)
(declare-fun lam13n9 () Int)
(declare-fun lam14n0 () Int)
(declare-fun lam14n1 () Int)
(declare-fun lam14n2 () Int)
(declare-fun lam14n3 () Int)
(declare-fun lam14n4 () Int)
(declare-fun lam14n5 () Int)
(declare-fun lam14n6 () Int)
(declare-fun lam14n7 () Int)
(declare-fun lam14n8 () Int)
(declare-fun lam14n9 () Int)
(declare-fun lam14n10 () Int)
(declare-fun lam15n0 () Int)
(declare-fun lam15n1 () Int)
(declare-fun lam15n2 () Int)
(declare-fun lam15n3 () Int)
(declare-fun lam15n4 () Int)
(declare-fun lam15n5 () Int)
(declare-fun lam15n6 () Int)
(declare-fun lam15n7 () Int)
(declare-fun lam15n8 () Int)
(declare-fun lam15n9 () Int)
(declare-fun lam15n10 () Int)
(declare-fun lam16n0 () Int)
(declare-fun lam16n1 () Int)
(declare-fun lam16n2 () Int)
(declare-fun lam16n3 () Int)
(declare-fun lam16n4 () Int)
(declare-fun lam16n5 () Int)
(declare-fun lam16n6 () Int)
(declare-fun lam16n7 () Int)
(declare-fun lam16n8 () Int)
(declare-fun lam16n9 () Int)
(declare-fun lam16n10 () Int)
(declare-fun lam17n0 () Int)
(declare-fun lam17n1 () Int)
(declare-fun lam17n2 () Int)
(declare-fun lam17n3 () Int)
(declare-fun lam17n4 () Int)
(declare-fun lam17n5 () Int)
(declare-fun lam17n6 () Int)
(declare-fun lam18n0 () Int)
(declare-fun lam18n1 () Int)
(declare-fun lam18n2 () Int)
(declare-fun lam18n3 () Int)
(declare-fun lam18n4 () Int)
(declare-fun lam18n5 () Int)
(declare-fun lam18n6 () Int)
(declare-fun lam19n0 () Int)
(declare-fun lam19n1 () Int)
(declare-fun lam19n2 () Int)
(declare-fun lam19n3 () Int)
(declare-fun lam19n4 () Int)
(declare-fun lam19n5 () Int)
(declare-fun lam19n6 () Int)
(declare-fun lam20n0 () Int)
(declare-fun lam20n1 () Int)
(declare-fun lam20n2 () Int)
(declare-fun lam20n3 () Int)
(declare-fun lam20n4 () Int)
(declare-fun lam20n5 () Int)
(declare-fun lam20n6 () Int)
(declare-fun lam20n7 () Int)
(declare-fun lam20n8 () Int)
(declare-fun lam20n9 () Int)
(declare-fun lam20n10 () Int)
(declare-fun lam21n0 () Int)
(declare-fun lam21n1 () Int)
(declare-fun lam21n2 () Int)
(declare-fun lam21n3 () Int)
(declare-fun lam21n4 () Int)
(declare-fun lam21n5 () Int)
(declare-fun lam21n6 () Int)
(declare-fun lam21n7 () Int)
(declare-fun lam21n8 () Int)
(declare-fun lam21n9 () Int)
(declare-fun lam21n10 () Int)
(declare-fun lam22n0 () Int)
(declare-fun lam22n1 () Int)
(declare-fun lam22n2 () Int)
(declare-fun lam22n3 () Int)
(declare-fun lam22n4 () Int)
(declare-fun lam22n5 () Int)
(declare-fun lam22n6 () Int)
(declare-fun lam22n7 () Int)
(declare-fun lam22n8 () Int)
(declare-fun lam22n9 () Int)
(declare-fun lam22n10 () Int)
(declare-fun lam23n0 () Int)
(declare-fun lam23n1 () Int)
(declare-fun lam23n2 () Int)
(declare-fun lam23n3 () Int)
(declare-fun lam23n4 () Int)
(declare-fun lam23n5 () Int)
(declare-fun lam23n6 () Int)
(declare-fun lam23n7 () Int)
(declare-fun lam23n8 () Int)
(declare-fun lam23n9 () Int)
(declare-fun lam23n10 () Int)
(declare-fun lam23n11 () Int)
(declare-fun lam24n0 () Int)
(declare-fun lam24n1 () Int)
(declare-fun lam24n2 () Int)
(declare-fun lam24n3 () Int)
(declare-fun lam24n4 () Int)
(declare-fun lam24n5 () Int)
(declare-fun lam24n6 () Int)
(declare-fun lam24n7 () Int)
(declare-fun lam24n8 () Int)
(declare-fun lam24n9 () Int)
(declare-fun lam24n10 () Int)
(declare-fun lam24n11 () Int)
(declare-fun lam25n0 () Int)
(declare-fun lam25n1 () Int)
(declare-fun lam25n2 () Int)
(declare-fun lam25n3 () Int)
(declare-fun lam25n4 () Int)
(declare-fun lam25n5 () Int)
(declare-fun lam25n6 () Int)
(declare-fun lam25n7 () Int)
(declare-fun lam25n8 () Int)
(declare-fun lam25n9 () Int)
(declare-fun lam25n10 () Int)
(declare-fun lam25n11 () Int)
(declare-fun lam26n0 () Int)
(declare-fun lam26n1 () Int)
(declare-fun lam26n2 () Int)
(declare-fun lam26n3 () Int)
(declare-fun lam27n0 () Int)
(declare-fun lam27n1 () Int)
(declare-fun lam27n2 () Int)
(declare-fun lam27n3 () Int)
(declare-fun lam28n0 () Int)
(declare-fun lam28n1 () Int)
(declare-fun lam28n2 () Int)
(declare-fun lam28n3 () Int)
(declare-fun lam29n0 () Int)
(declare-fun lam29n1 () Int)
(declare-fun lam29n2 () Int)
(declare-fun lam29n3 () Int)
(declare-fun lam30n0 () Int)
(declare-fun lam30n1 () Int)
(declare-fun lam30n2 () Int)
(declare-fun lam30n3 () Int)
(declare-fun lam31n0 () Int)
(declare-fun lam31n1 () Int)
(declare-fun lam31n2 () Int)
(declare-fun lam31n3 () Int)
(declare-fun lam32n0 () Int)
(declare-fun lam32n1 () Int)
(declare-fun lam32n2 () Int)
(declare-fun lam32n3 () Int)
(declare-fun lam32n4 () Int)
(declare-fun lam32n5 () Int)
(declare-fun lam32n6 () Int)
(declare-fun lam32n7 () Int)
(declare-fun lam32n8 () Int)
(declare-fun lam32n9 () Int)
(declare-fun lam32n10 () Int)
(declare-fun lam32n11 () Int)
(declare-fun lam32n12 () Int)
(declare-fun lam32n13 () Int)
(declare-fun lam32n14 () Int)
(declare-fun lam32n15 () Int)
(declare-fun lam33n0 () Int)
(declare-fun lam33n1 () Int)
(declare-fun lam33n2 () Int)
(declare-fun lam33n3 () Int)
(declare-fun lam33n4 () Int)
(declare-fun lam33n5 () Int)
(declare-fun lam33n6 () Int)
(declare-fun lam33n7 () Int)
(declare-fun lam33n8 () Int)
(declare-fun lam33n9 () Int)
(declare-fun lam33n10 () Int)
(declare-fun lam33n11 () Int)
(declare-fun lam33n12 () Int)
(declare-fun lam33n13 () Int)
(declare-fun lam33n14 () Int)
(declare-fun lam33n15 () Int)
(declare-fun lam34n0 () Int)
(declare-fun lam34n1 () Int)
(declare-fun lam34n2 () Int)
(declare-fun lam34n3 () Int)
(declare-fun lam34n4 () Int)
(declare-fun lam34n5 () Int)
(declare-fun lam34n6 () Int)
(declare-fun lam34n7 () Int)
(declare-fun lam34n8 () Int)
(declare-fun lam34n9 () Int)
(declare-fun lam34n10 () Int)
(declare-fun lam34n11 () Int)
(declare-fun lam34n12 () Int)
(declare-fun lam34n13 () Int)
(declare-fun lam34n14 () Int)
(declare-fun lam34n15 () Int)
(declare-fun lam35n0 () Int)
(declare-fun lam35n1 () Int)
(declare-fun lam35n2 () Int)
(declare-fun lam35n3 () Int)
(declare-fun lam35n4 () Int)
(declare-fun lam35n5 () Int)
(declare-fun lam35n6 () Int)
(declare-fun lam35n7 () Int)
(declare-fun lam35n8 () Int)
(declare-fun lam35n9 () Int)
(declare-fun lam35n10 () Int)
(declare-fun lam35n11 () Int)
(declare-fun lam35n12 () Int)
(declare-fun lam35n13 () Int)
(declare-fun lam35n14 () Int)
(declare-fun lam35n15 () Int)
(declare-fun lam36n0 () Int)
(declare-fun lam36n1 () Int)
(declare-fun lam36n2 () Int)
(declare-fun lam36n3 () Int)
(declare-fun lam36n4 () Int)
(declare-fun lam36n5 () Int)
(declare-fun lam36n6 () Int)
(declare-fun lam36n7 () Int)
(declare-fun lam36n8 () Int)
(declare-fun lam36n9 () Int)
(declare-fun lam36n10 () Int)
(declare-fun lam36n11 () Int)
(declare-fun lam36n12 () Int)
(declare-fun lam36n13 () Int)
(declare-fun lam36n14 () Int)
(declare-fun lam36n15 () Int)
(declare-fun lam37n0 () Int)
(declare-fun lam37n1 () Int)
(declare-fun lam37n2 () Int)
(declare-fun lam37n3 () Int)
(declare-fun lam37n4 () Int)
(declare-fun lam37n5 () Int)
(declare-fun lam37n6 () Int)
(declare-fun lam37n7 () Int)
(declare-fun lam37n8 () Int)
(declare-fun lam37n9 () Int)
(declare-fun lam37n10 () Int)
(declare-fun lam37n11 () Int)
(declare-fun lam37n12 () Int)
(declare-fun lam37n13 () Int)
(declare-fun lam37n14 () Int)
(declare-fun lam37n15 () Int)
(declare-fun lam38n0 () Int)
(declare-fun lam38n1 () Int)
(declare-fun lam38n2 () Int)
(declare-fun lam38n3 () Int)
(declare-fun lam38n4 () Int)
(declare-fun lam38n5 () Int)
(declare-fun lam38n6 () Int)
(declare-fun lam38n7 () Int)
(declare-fun lam38n8 () Int)
(declare-fun lam38n9 () Int)
(declare-fun lam38n10 () Int)
(declare-fun lam38n11 () Int)
(declare-fun lam38n12 () Int)
(declare-fun lam38n13 () Int)
(declare-fun lam38n14 () Int)
(declare-fun lam38n15 () Int)
(declare-fun lam38n16 () Int)
(declare-fun lam39n0 () Int)
(declare-fun lam39n1 () Int)
(declare-fun lam39n2 () Int)
(declare-fun lam39n3 () Int)
(declare-fun lam39n4 () Int)
(declare-fun lam39n5 () Int)
(declare-fun lam39n6 () Int)
(declare-fun lam39n7 () Int)
(declare-fun lam39n8 () Int)
(declare-fun lam39n9 () Int)
(declare-fun lam39n10 () Int)
(declare-fun lam39n11 () Int)
(declare-fun lam39n12 () Int)
(declare-fun lam39n13 () Int)
(declare-fun lam39n14 () Int)
(declare-fun lam39n15 () Int)
(declare-fun lam39n16 () Int)
(declare-fun lam40n0 () Int)
(declare-fun lam40n1 () Int)
(declare-fun lam40n2 () Int)
(declare-fun lam40n3 () Int)
(declare-fun lam40n4 () Int)
(declare-fun lam40n5 () Int)
(declare-fun lam40n6 () Int)
(declare-fun lam40n7 () Int)
(declare-fun lam40n8 () Int)
(declare-fun lam40n9 () Int)
(declare-fun lam40n10 () Int)
(declare-fun lam40n11 () Int)
(declare-fun lam40n12 () Int)
(declare-fun lam40n13 () Int)
(declare-fun lam40n14 () Int)
(declare-fun lam40n15 () Int)
(declare-fun lam40n16 () Int)
(declare-fun undef6 () Int)
(declare-fun undef139 () Int)
(declare-fun undef32 () Int)
(declare-fun undef140 () Int)
(declare-fun undef33 () Int)
(declare-fun undef34 () Int)
(declare-fun undef37 () Int)
(declare-fun undef21 () Int)
(declare-fun undef26 () Int)
(declare-fun undef42 () Int)
(declare-fun undef22 () Int)
(declare-fun undef23 () Int)
(declare-fun undef43 () Int)
(declare-fun undef48 () Int)
(declare-fun undef49 () Int)
(declare-fun undef11 () Int)
(declare-fun undef12 () Int)
(declare-fun undef27 () Int)
(declare-fun undef28 () Int)
(declare-fun undef29 () Int)
(declare-fun undef50 () Int)
(declare-fun undef51 () Int)
(declare-fun undef52 () Int)
(declare-fun arg1 () Int)
(declare-fun undef79 () Int)
(declare-fun arg2 () Int)
(declare-fun undef80 () Int)
(declare-fun undef100 () Int)
(declare-fun undef81 () Int)
(declare-fun undef84 () Int)
(declare-fun undef105 () Int)
(declare-fun arg3 () Int)
(declare-fun undef83 () Int)
(declare-fun undef101 () Int)
(declare-fun undef102 () Int)
(declare-fun undef85 () Int)
(declare-fun undef86 () Int)
(declare-fun undef90 () Int)
(declare-fun undef91 () Int)
(declare-fun undef89 () Int)
(declare-fun undef92 () Int)
(declare-fun undef93 () Int)
(declare-fun undef97 () Int)
(declare-fun undef99 () Int)
(declare-fun undef98 () Int)
(declare-fun undef96 () Int)
(declare-fun FV_arg1_2 () Int)
(declare-fun FV_arg2_2 () Int)
(declare-fun FV_arg3_2 () Int)
(declare-fun lam41n0 () Int)
(declare-fun lam41n1 () Int)
(declare-fun lam41n2 () Int)
(declare-fun lam41n3 () Int)
(declare-fun lam41n4 () Int)
(declare-fun lam42n0 () Int)
(declare-fun lam42n1 () Int)
(declare-fun lam42n2 () Int)
(declare-fun lam42n3 () Int)
(declare-fun lam42n4 () Int)
(declare-fun UndefDef0undef127_CT () Int)
(declare-fun UndefDef0undef127_arg1 () Int)
(declare-fun UndefDef0undef127_arg2 () Int)
(declare-fun UndefDef0undef127_arg3 () Int)
(declare-fun lam43n0 () Int)
(declare-fun lam43n1 () Int)
(declare-fun lam43n2 () Int)
(declare-fun lam43n3 () Int)
(declare-fun lam43n4 () Int)
(declare-fun lam44n0 () Int)
(declare-fun lam44n1 () Int)
(declare-fun lam44n2 () Int)
(declare-fun lam44n3 () Int)
(declare-fun lam44n4 () Int)
(declare-fun lam45n0 () Int)
(declare-fun lam45n1 () Int)
(declare-fun lam45n2 () Int)
(declare-fun lam45n3 () Int)
(declare-fun lam45n4 () Int)
(declare-fun lam46n0 () Int)
(declare-fun lam46n1 () Int)
(declare-fun lam46n2 () Int)
(declare-fun lam46n3 () Int)
(declare-fun lam46n4 () Int)
(declare-fun UndefDef1undef133_CT () Int)
(declare-fun UndefDef1undef133_arg1 () Int)
(declare-fun UndefDef1undef133_arg2 () Int)
(declare-fun UndefDef1undef133_arg3 () Int)
(declare-fun lam47n0 () Int)
(declare-fun lam47n1 () Int)
(declare-fun lam47n2 () Int)
(declare-fun lam47n3 () Int)
(declare-fun lam47n4 () Int)
(declare-fun lam48n0 () Int)
(declare-fun lam48n1 () Int)
(declare-fun lam48n2 () Int)
(declare-fun lam48n3 () Int)
(declare-fun lam48n4 () Int)
(declare-fun FV_undef132_0 () Int)
(declare-fun FV_arg1_0 () Int)
(declare-fun FV_arg2_0 () Int)
(declare-fun FV_arg3_0 () Int)
(declare-fun FV_undef127_0 () Int)
(declare-fun FV_undef128_0 () Int)
(declare-fun FV_undef129_0 () Int)
(declare-fun FV_undef138_1 () Int)
(declare-fun FV_arg1_1 () Int)
(declare-fun FV_arg2_1 () Int)
(declare-fun FV_arg3_1 () Int)
(declare-fun FV_undef133_1 () Int)
(declare-fun FV_undef134_1 () Int)
(declare-fun FV_undef135_1 () Int)
(declare-fun lam49n0 () Int)
(declare-fun lam49n1 () Int)
(declare-fun lam49n2 () Int)
(declare-fun lam49n3 () Int)
(declare-fun FV_arg1_3 () Int)
(declare-fun FV_arg2_3 () Int)
(declare-fun FV_arg3_3 () Int)
(declare-fun FV_undef127_3 () Int)
(declare-fun FV_undef132_3 () Int)
(declare-fun FV_undef133_3 () Int)
(declare-fun FV_undef138_3 () Int)
(assert ( and ( <= ( - 1 ) Nl5arg11 ) ( <= Nl5arg11 1 ) ( <= ( - 1 ) Nl5arg21 ) ( <= Nl5arg21 1 ) ( <= ( - 1 ) Nl5arg31 ) ( <= Nl5arg31 1 ) ( <= ( - 1 ) Nl5arg12 ) ( <= Nl5arg12 1 ) ( <= ( - 1 ) Nl5arg22 ) ( <= Nl5arg22 1 ) ( <= ( - 1 ) Nl5arg32 ) ( <= Nl5arg32 1 ) ( <= ( - 1 ) Nl5arg13 ) ( <= Nl5arg13 1 ) ( <= ( - 1 ) Nl5arg23 ) ( <= Nl5arg23 1 ) ( <= ( - 1 ) Nl5arg33 ) ( <= Nl5arg33 1 ) ))
(assert ( or ( and ( >= lam0n0 0 ) ( >= lam0n1 0 ) ( >= lam0n2 0 ) ( >= lam0n3 0 ) ( >= lam0n4 0 ) ( >= lam0n5 0 ) ( >= lam0n6 0 ) ( >= lam0n7 0 ) ( > ( + ( * 1 lam0n2 ) ( * 1 lam0n3 ) ( * UndefCntr0_CT lam0n4 ) ( * Nl5CT1 lam0n5 ) ( * Nl5CT2 lam0n6 ) ( * Nl5CT3 lam0n7 ) ( - 1 ) ) 0 ) ( = ( + ( * ( - 1 ) lam0n2 ) ( * ( - 1 ) lam0n3 ) ( * UndefCntr0_arg1 lam0n4 ) ( * Nl5arg11 lam0n5 ) ( * Nl5arg12 lam0n6 ) ( * Nl5arg13 lam0n7 ) ) 0 ) ( = ( + ( * UndefCntr0_arg2 lam0n4 ) ( * Nl5arg21 lam0n5 ) ( * Nl5arg22 lam0n6 ) ( * Nl5arg23 lam0n7 ) ) 0 ) ( = ( + ( * UndefCntr0_arg3 lam0n4 ) ( * Nl5arg31 lam0n5 ) ( * Nl5arg32 lam0n6 ) ( * Nl5arg33 lam0n7 ) ) 0 ) ( = ( + ( * ( - 1 ) lam0n0 ) ( * 1 lam0n3 ) ( * UndefCntr0_undef127 lam0n4 ) ) 0 ) ( = ( * UndefCntr0_undef128 lam0n4 ) 0 ) ( = ( * UndefCntr0_undef129 lam0n4 ) 0 ) ( = ( + ( * 1 lam0n1 ) ( * UndefCntr0_undef132 lam0n4 ) ) 0 ) ) ( and ( >= lam1n0 0 ) ( >= lam1n1 0 ) ( >= lam1n2 0 ) ( >= lam1n3 0 ) ( >= lam1n4 0 ) ( >= lam1n5 0 ) ( >= lam1n6 0 ) ( >= lam1n7 0 ) ( > ( + ( * 1 lam1n2 ) ( * 1 lam1n3 ) ( * UndefCntr0_CT lam1n4 ) ( * Nl5CT1 lam1n5 ) ( * Nl5CT2 lam1n6 ) ( * Nl5CT3 lam1n7 ) ( - 1 ( + ( + ( + Nl5CT1 ( * Nl5arg11 0 ) ) ( * Nl5arg21 0 ) ) ( * Nl5arg31 0 ) ) ) ) 0 ) ( = ( + ( * ( - 1 ) lam1n2 ) ( * ( - 1 ) lam1n3 ) ( * UndefCntr0_arg1 lam1n4 ) ( * Nl5arg11 lam1n5 ) ( * Nl5arg12 lam1n6 ) ( * Nl5arg13 lam1n7 ) ) 0 ) ( = ( + ( * UndefCntr0_arg2 lam1n4 ) ( * Nl5arg21 lam1n5 ) ( * Nl5arg22 lam1n6 ) ( * Nl5arg23 lam1n7 ) ) 0 ) ( = ( + ( * UndefCntr0_arg3 lam1n4 ) ( * Nl5arg31 lam1n5 ) ( * Nl5arg32 lam1n6 ) ( * Nl5arg33 lam1n7 ) ) 0 ) ( = ( + ( * ( - 1 ) lam1n0 ) ( * 1 lam1n3 ) ( * UndefCntr0_undef127 lam1n4 ) ( - ( + 0 ( * Nl5arg11 1 ) ) ) ) 0 ) ( = ( + ( * UndefCntr0_undef128 lam1n4 ) ( - ( + 0 ( * Nl5arg21 1 ) ) ) ) 0 ) ( = ( + ( * UndefCntr0_undef129 lam1n4 ) ( - ( + 0 ( * Nl5arg31 1 ) ) ) ) 0 ) ( = ( + ( * 1 lam1n1 ) ( * UndefCntr0_undef132 lam1n4 ) ) 0 ) ) ))
(assert ( or ( and ( >= lam0n0 0 ) ( >= lam0n1 0 ) ( >= lam0n2 0 ) ( >= lam0n3 0 ) ( >= lam0n4 0 ) ( >= lam0n5 0 ) ( >= lam0n6 0 ) ( >= lam0n7 0 ) ( > ( + ( * 1 lam0n2 ) ( * 1 lam0n3 ) ( * UndefCntr0_CT lam0n4 ) ( * Nl5CT1 lam0n5 ) ( * Nl5CT2 lam0n6 ) ( * Nl5CT3 lam0n7 ) ( - 1 ) ) 0 ) ( = ( + ( * ( - 1 ) lam0n2 ) ( * ( - 1 ) lam0n3 ) ( * UndefCntr0_arg1 lam0n4 ) ( * Nl5arg11 lam0n5 ) ( * Nl5arg12 lam0n6 ) ( * Nl5arg13 lam0n7 ) ) 0 ) ( = ( + ( * UndefCntr0_arg2 lam0n4 ) ( * Nl5arg21 lam0n5 ) ( * Nl5arg22 lam0n6 ) ( * Nl5arg23 lam0n7 ) ) 0 ) ( = ( + ( * UndefCntr0_arg3 lam0n4 ) ( * Nl5arg31 lam0n5 ) ( * Nl5arg32 lam0n6 ) ( * Nl5arg33 lam0n7 ) ) 0 ) ( = ( + ( * ( - 1 ) lam0n0 ) ( * 1 lam0n3 ) ( * UndefCntr0_undef127 lam0n4 ) ) 0 ) ( = ( * UndefCntr0_undef128 lam0n4 ) 0 ) ( = ( * UndefCntr0_undef129 lam0n4 ) 0 ) ( = ( + ( * 1 lam0n1 ) ( * UndefCntr0_undef132 lam0n4 ) ) 0 ) ) ( and ( >= lam2n0 0 ) ( >= lam2n1 0 ) ( >= lam2n2 0 ) ( >= lam2n3 0 ) ( >= lam2n4 0 ) ( >= lam2n5 0 ) ( >= lam2n6 0 ) ( >= lam2n7 0 ) ( > ( + ( * 1 lam2n2 ) ( * 1 lam2n3 ) ( * UndefCntr0_CT lam2n4 ) ( * Nl5CT1 lam2n5 ) ( * Nl5CT2 lam2n6 ) ( * Nl5CT3 lam2n7 ) ( - 1 ( + ( + ( + Nl5CT2 ( * Nl5arg12 0 ) ) ( * Nl5arg22 0 ) ) ( * Nl5arg32 0 ) ) ) ) 0 ) ( = ( + ( * ( - 1 ) lam2n2 ) ( * ( - 1 ) lam2n3 ) ( * UndefCntr0_arg1 lam2n4 ) ( * Nl5arg11 lam2n5 ) ( * Nl5arg12 lam2n6 ) ( * Nl5arg13 lam2n7 ) ) 0 ) ( = ( + ( * UndefCntr0_arg2 lam2n4 ) ( * Nl5arg21 lam2n5 ) ( * Nl5arg22 lam2n6 ) ( * Nl5arg23 lam2n7 ) ) 0 ) ( = ( + ( * UndefCntr0_arg3 lam2n4 ) ( * Nl5arg31 lam2n5 ) ( * Nl5arg32 lam2n6 ) ( * Nl5arg33 lam2n7 ) ) 0 ) ( = ( + ( * ( - 1 ) lam2n0 ) ( * 1 lam2n3 ) ( * UndefCntr0_undef127 lam2n4 ) ( - ( + 0 ( * Nl5arg12 1 ) ) ) ) 0 ) ( = ( + ( * UndefCntr0_undef128 lam2n4 ) ( - ( + 0 ( * Nl5arg22 1 ) ) ) ) 0 ) ( = ( + ( * UndefCntr0_undef129 lam2n4 ) ( - ( + 0 ( * Nl5arg32 1 ) ) ) ) 0 ) ( = ( + ( * 1 lam2n1 ) ( * UndefCntr0_undef132 lam2n4 ) ) 0 ) ) ))
(assert ( or ( and ( >= lam0n0 0 ) ( >= lam0n1 0 ) ( >= lam0n2 0 ) ( >= lam0n3 0 ) ( >= lam0n4 0 ) ( >= lam0n5 0 ) ( >= lam0n6 0 ) ( >= lam0n7 0 ) ( > ( + ( * 1 lam0n2 ) ( * 1 lam0n3 ) ( * UndefCntr0_CT lam0n4 ) ( * Nl5CT1 lam0n5 ) ( * Nl5CT2 lam0n6 ) ( * Nl5CT3 lam0n7 ) ( - 1 ) ) 0 ) ( = ( + ( * ( - 1 ) lam0n2 ) ( * ( - 1 ) lam0n3 ) ( * UndefCntr0_arg1 lam0n4 ) ( * Nl5arg11 lam0n5 ) ( * Nl5arg12 lam0n6 ) ( * Nl5arg13 lam0n7 ) ) 0 ) ( = ( + ( * UndefCntr0_arg2 lam0n4 ) ( * Nl5arg21 lam0n5 ) ( * Nl5arg22 lam0n6 ) ( * Nl5arg23 lam0n7 ) ) 0 ) ( = ( + ( * UndefCntr0_arg3 lam0n4 ) ( * Nl5arg31 lam0n5 ) ( * Nl5arg32 lam0n6 ) ( * Nl5arg33 lam0n7 ) ) 0 ) ( = ( + ( * ( - 1 ) lam0n0 ) ( * 1 lam0n3 ) ( * UndefCntr0_undef127 lam0n4 ) ) 0 ) ( = ( * UndefCntr0_undef128 lam0n4 ) 0 ) ( = ( * UndefCntr0_undef129 lam0n4 ) 0 ) ( = ( + ( * 1 lam0n1 ) ( * UndefCntr0_undef132 lam0n4 ) ) 0 ) ) ( and ( >= lam3n0 0 ) ( >= lam3n1 0 ) ( >= lam3n2 0 ) ( >= lam3n3 0 ) ( >= lam3n4 0 ) ( >= lam3n5 0 ) ( >= lam3n6 0 ) ( >= lam3n7 0 ) ( > ( + ( * 1 lam3n2 ) ( * 1 lam3n3 ) ( * UndefCntr0_CT lam3n4 ) ( * Nl5CT1 lam3n5 ) ( * Nl5CT2 lam3n6 ) ( * Nl5CT3 lam3n7 ) ( - 1 ( + ( + ( + Nl5CT3 ( * Nl5arg13 0 ) ) ( * Nl5arg23 0 ) ) ( * Nl5arg33 0 ) ) ) ) 0 ) ( = ( + ( * ( - 1 ) lam3n2 ) ( * ( - 1 ) lam3n3 ) ( * UndefCntr0_arg1 lam3n4 ) ( * Nl5arg11 lam3n5 ) ( * Nl5arg12 lam3n6 ) ( * Nl5arg13 lam3n7 ) ) 0 ) ( = ( + ( * UndefCntr0_arg2 lam3n4 ) ( * Nl5arg21 lam3n5 ) ( * Nl5arg22 lam3n6 ) ( * Nl5arg23 lam3n7 ) ) 0 ) ( = ( + ( * UndefCntr0_arg3 lam3n4 ) ( * Nl5arg31 lam3n5 ) ( * Nl5arg32 lam3n6 ) ( * Nl5arg33 lam3n7 ) ) 0 ) ( = ( + ( * ( - 1 ) lam3n0 ) ( * 1 lam3n3 ) ( * UndefCntr0_undef127 lam3n4 ) ( - ( + 0 ( * Nl5arg13 1 ) ) ) ) 0 ) ( = ( + ( * UndefCntr0_undef128 lam3n4 ) ( - ( + 0 ( * Nl5arg23 1 ) ) ) ) 0 ) ( = ( + ( * UndefCntr0_undef129 lam3n4 ) ( - ( + 0 ( * Nl5arg33 1 ) ) ) ) 0 ) ( = ( + ( * 1 lam3n1 ) ( * UndefCntr0_undef132 lam3n4 ) ) 0 ) ) ))
(assert ( or ( and ( >= lam4n0 0 ) ( >= lam4n1 0 ) ( >= lam4n2 0 ) ( >= lam4n3 0 ) ( >= lam4n4 0 ) ( >= lam4n5 0 ) ( >= lam4n6 0 ) ( >= lam4n7 0 ) ( > ( + ( * 1 lam4n1 ) ( * 1 lam4n2 ) ( * 1 lam4n3 ) ( * UndefCntr1_CT lam4n4 ) ( * Nl5CT1 lam4n5 ) ( * Nl5CT2 lam4n6 ) ( * Nl5CT3 lam4n7 ) ( - 1 ) ) 0 ) ( = ( + ( * ( - 1 ) lam4n0 ) ( * ( - 1 ) lam4n1 ) ( * UndefCntr1_arg1 lam4n4 ) ( * Nl5arg11 lam4n5 ) ( * Nl5arg12 lam4n6 ) ( * Nl5arg13 lam4n7 ) ) 0 ) ( = ( + ( * UndefCntr1_arg2 lam4n4 ) ( * Nl5arg21 lam4n5 ) ( * Nl5arg22 lam4n6 ) ( * Nl5arg23 lam4n7 ) ) 0 ) ( = ( + ( * UndefCntr1_arg3 lam4n4 ) ( * Nl5arg31 lam4n5 ) ( * Nl5arg32 lam4n6 ) ( * Nl5arg33 lam4n7 ) ) 0 ) ( = ( + ( * 1 lam4n0 ) ( * ( - 1 ) lam4n2 ) ( * UndefCntr1_undef133 lam4n4 ) ) 0 ) ( = ( * UndefCntr1_undef134 lam4n4 ) 0 ) ( = ( * UndefCntr1_undef135 lam4n4 ) 0 ) ( = ( + ( * ( - 1 ) lam4n3 ) ( * UndefCntr1_undef138 lam4n4 ) ) 0 ) ) ( and ( >= lam5n0 0 ) ( >= lam5n1 0 ) ( >= lam5n2 0 ) ( >= lam5n3 0 ) ( >= lam5n4 0 ) ( >= lam5n5 0 ) ( >= lam5n6 0 ) ( >= lam5n7 0 ) ( > ( + ( * 1 lam5n1 ) ( * 1 lam5n2 ) ( * 1 lam5n3 ) ( * UndefCntr1_CT lam5n4 ) ( * Nl5CT1 lam5n5 ) ( * Nl5CT2 lam5n6 ) ( * Nl5CT3 lam5n7 ) ( - 1 ( + ( + ( + Nl5CT1 ( * Nl5arg11 0 ) ) ( * Nl5arg21 0 ) ) ( * Nl5arg31 0 ) ) ) ) 0 ) ( = ( + ( * ( - 1 ) lam5n0 ) ( * ( - 1 ) lam5n1 ) ( * UndefCntr1_arg1 lam5n4 ) ( * Nl5arg11 lam5n5 ) ( * Nl5arg12 lam5n6 ) ( * Nl5arg13 lam5n7 ) ) 0 ) ( = ( + ( * UndefCntr1_arg2 lam5n4 ) ( * Nl5arg21 lam5n5 ) ( * Nl5arg22 lam5n6 ) ( * Nl5arg23 lam5n7 ) ) 0 ) ( = ( + ( * UndefCntr1_arg3 lam5n4 ) ( * Nl5arg31 lam5n5 ) ( * Nl5arg32 lam5n6 ) ( * Nl5arg33 lam5n7 ) ) 0 ) ( = ( + ( * 1 lam5n0 ) ( * ( - 1 ) lam5n2 ) ( * UndefCntr1_undef133 lam5n4 ) ( - ( + 0 ( * Nl5arg11 1 ) ) ) ) 0 ) ( = ( + ( * UndefCntr1_undef134 lam5n4 ) ( - ( + 0 ( * Nl5arg21 1 ) ) ) ) 0 ) ( = ( + ( * UndefCntr1_undef135 lam5n4 ) ( - ( + 0 ( * Nl5arg31 1 ) ) ) ) 0 ) ( = ( + ( * ( - 1 ) lam5n3 ) ( * UndefCntr1_undef138 lam5n4 ) ) 0 ) ) ))
(assert ( or ( and ( >= lam4n0 0 ) ( >= lam4n1 0 ) ( >= lam4n2 0 ) ( >= lam4n3 0 ) ( >= lam4n4 0 ) ( >= lam4n5 0 ) ( >= lam4n6 0 ) ( >= lam4n7 0 ) ( > ( + ( * 1 lam4n1 ) ( * 1 lam4n2 ) ( * 1 lam4n3 ) ( * UndefCntr1_CT lam4n4 ) ( * Nl5CT1 lam4n5 ) ( * Nl5CT2 lam4n6 ) ( * Nl5CT3 lam4n7 ) ( - 1 ) ) 0 ) ( = ( + ( * ( - 1 ) lam4n0 ) ( * ( - 1 ) lam4n1 ) ( * UndefCntr1_arg1 lam4n4 ) ( * Nl5arg11 lam4n5 ) ( * Nl5arg12 lam4n6 ) ( * Nl5arg13 lam4n7 ) ) 0 ) ( = ( + ( * UndefCntr1_arg2 lam4n4 ) ( * Nl5arg21 lam4n5 ) ( * Nl5arg22 lam4n6 ) ( * Nl5arg23 lam4n7 ) ) 0 ) ( = ( + ( * UndefCntr1_arg3 lam4n4 ) ( * Nl5arg31 lam4n5 ) ( * Nl5arg32 lam4n6 ) ( * Nl5arg33 lam4n7 ) ) 0 ) ( = ( + ( * 1 lam4n0 ) ( * ( - 1 ) lam4n2 ) ( * UndefCntr1_undef133 lam4n4 ) ) 0 ) ( = ( * UndefCntr1_undef134 lam4n4 ) 0 ) ( = ( * UndefCntr1_undef135 lam4n4 ) 0 ) ( = ( + ( * ( - 1 ) lam4n3 ) ( * UndefCntr1_undef138 lam4n4 ) ) 0 ) ) ( and ( >= lam6n0 0 ) ( >= lam6n1 0 ) ( >= lam6n2 0 ) ( >= lam6n3 0 ) ( >= lam6n4 0 ) ( >= lam6n5 0 ) ( >= lam6n6 0 ) ( >= lam6n7 0 ) ( > ( + ( * 1 lam6n1 ) ( * 1 lam6n2 ) ( * 1 lam6n3 ) ( * UndefCntr1_CT lam6n4 ) ( * Nl5CT1 lam6n5 ) ( * Nl5CT2 lam6n6 ) ( * Nl5CT3 lam6n7 ) ( - 1 ( + ( + ( + Nl5CT2 ( * Nl5arg12 0 ) ) ( * Nl5arg22 0 ) ) ( * Nl5arg32 0 ) ) ) ) 0 ) ( = ( + ( * ( - 1 ) lam6n0 ) ( * ( - 1 ) lam6n1 ) ( * UndefCntr1_arg1 lam6n4 ) ( * Nl5arg11 lam6n5 ) ( * Nl5arg12 lam6n6 ) ( * Nl5arg13 lam6n7 ) ) 0 ) ( = ( + ( * UndefCntr1_arg2 lam6n4 ) ( * Nl5arg21 lam6n5 ) ( * Nl5arg22 lam6n6 ) ( * Nl5arg23 lam6n7 ) ) 0 ) ( = ( + ( * UndefCntr1_arg3 lam6n4 ) ( * Nl5arg31 lam6n5 ) ( * Nl5arg32 lam6n6 ) ( * Nl5arg33 lam6n7 ) ) 0 ) ( = ( + ( * 1 lam6n0 ) ( * ( - 1 ) lam6n2 ) ( * UndefCntr1_undef133 lam6n4 ) ( - ( + 0 ( * Nl5arg12 1 ) ) ) ) 0 ) ( = ( + ( * UndefCntr1_undef134 lam6n4 ) ( - ( + 0 ( * Nl5arg22 1 ) ) ) ) 0 ) ( = ( + ( * UndefCntr1_undef135 lam6n4 ) ( - ( + 0 ( * Nl5arg32 1 ) ) ) ) 0 ) ( = ( + ( * ( - 1 ) lam6n3 ) ( * UndefCntr1_undef138 lam6n4 ) ) 0 ) ) ))
(assert ( or ( and ( >= lam4n0 0 ) ( >= lam4n1 0 ) ( >= lam4n2 0 ) ( >= lam4n3 0 ) ( >= lam4n4 0 ) ( >= lam4n5 0 ) ( >= lam4n6 0 ) ( >= lam4n7 0 ) ( > ( + ( * 1 lam4n1 ) ( * 1 lam4n2 ) ( * 1 lam4n3 ) ( * UndefCntr1_CT lam4n4 ) ( * Nl5CT1 lam4n5 ) ( * Nl5CT2 lam4n6 ) ( * Nl5CT3 lam4n7 ) ( - 1 ) ) 0 ) ( = ( + ( * ( - 1 ) lam4n0 ) ( * ( - 1 ) lam4n1 ) ( * UndefCntr1_arg1 lam4n4 ) ( * Nl5arg11 lam4n5 ) ( * Nl5arg12 lam4n6 ) ( * Nl5arg13 lam4n7 ) ) 0 ) ( = ( + ( * UndefCntr1_arg2 lam4n4 ) ( * Nl5arg21 lam4n5 ) ( * Nl5arg22 lam4n6 ) ( * Nl5arg23 lam4n7 ) ) 0 ) ( = ( + ( * UndefCntr1_arg3 lam4n4 ) ( * Nl5arg31 lam4n5 ) ( * Nl5arg32 lam4n6 ) ( * Nl5arg33 lam4n7 ) ) 0 ) ( = ( + ( * 1 lam4n0 ) ( * ( - 1 ) lam4n2 ) ( * UndefCntr1_undef133 lam4n4 ) ) 0 ) ( = ( * UndefCntr1_undef134 lam4n4 ) 0 ) ( = ( * UndefCntr1_undef135 lam4n4 ) 0 ) ( = ( + ( * ( - 1 ) lam4n3 ) ( * UndefCntr1_undef138 lam4n4 ) ) 0 ) ) ( and ( >= lam7n0 0 ) ( >= lam7n1 0 ) ( >= lam7n2 0 ) ( >= lam7n3 0 ) ( >= lam7n4 0 ) ( >= lam7n5 0 ) ( >= lam7n6 0 ) ( >= lam7n7 0 ) ( > ( + ( * 1 lam7n1 ) ( * 1 lam7n2 ) ( * 1 lam7n3 ) ( * UndefCntr1_CT lam7n4 ) ( * Nl5CT1 lam7n5 ) ( * Nl5CT2 lam7n6 ) ( * Nl5CT3 lam7n7 ) ( - 1 ( + ( + ( + Nl5CT3 ( * Nl5arg13 0 ) ) ( * Nl5arg23 0 ) ) ( * Nl5arg33 0 ) ) ) ) 0 ) ( = ( + ( * ( - 1 ) lam7n0 ) ( * ( - 1 ) lam7n1 ) ( * UndefCntr1_arg1 lam7n4 ) ( * Nl5arg11 lam7n5 ) ( * Nl5arg12 lam7n6 ) ( * Nl5arg13 lam7n7 ) ) 0 ) ( = ( + ( * UndefCntr1_arg2 lam7n4 ) ( * Nl5arg21 lam7n5 ) ( * Nl5arg22 lam7n6 ) ( * Nl5arg23 lam7n7 ) ) 0 ) ( = ( + ( * UndefCntr1_arg3 lam7n4 ) ( * Nl5arg31 lam7n5 ) ( * Nl5arg32 lam7n6 ) ( * Nl5arg33 lam7n7 ) ) 0 ) ( = ( + ( * 1 lam7n0 ) ( * ( - 1 ) lam7n2 ) ( * UndefCntr1_undef133 lam7n4 ) ( - ( + 0 ( * Nl5arg13 1 ) ) ) ) 0 ) ( = ( + ( * UndefCntr1_undef134 lam7n4 ) ( - ( + 0 ( * Nl5arg23 1 ) ) ) ) 0 ) ( = ( + ( * UndefCntr1_undef135 lam7n4 ) ( - ( + 0 ( * Nl5arg33 1 ) ) ) ) 0 ) ( = ( + ( * ( - 1 ) lam7n3 ) ( * UndefCntr1_undef138 lam7n4 ) ) 0 ) ) ))
(assert ( and ( <= ( + Nl5CT1 ( * Nl5arg11 FV_arg1_2 ) ( * Nl5arg21 FV_arg2_2 ) ( * Nl5arg31 FV_arg3_2 ) ) 0 ) ( <= ( + Nl5CT2 ( * Nl5arg12 FV_arg1_2 ) ( * Nl5arg22 FV_arg2_2 ) ( * Nl5arg32 FV_arg3_2 ) ) 0 ) ( <= ( + Nl5CT3 ( * Nl5arg13 FV_arg1_2 ) ( * Nl5arg23 FV_arg2_2 ) ( * Nl5arg33 FV_arg3_2 ) ) 0 ) ))
(assert ( or ( not ( = UndefCntr0_arg1 0 ) ) ( not ( = UndefCntr0_arg2 0 ) ) ( not ( = UndefCntr0_arg3 0 ) ) ( not ( = UndefCntr0_undef127 0 ) ) ( not ( = UndefCntr0_undef128 0 ) ) ( not ( = UndefCntr0_undef129 0 ) ) ( not ( = UndefCntr0_undef132 0 ) ) ( = UndefCntr0_CT 0 ) ))
(assert ( or ( and ( = UndefCntr0_arg1 0 ) ( = UndefCntr0_arg2 0 ) ( = UndefCntr0_arg3 0 ) ) ( or ( not ( = UndefCntr0_undef127 0 ) ) ( not ( = UndefCntr0_undef128 0 ) ) ( not ( = UndefCntr0_undef129 0 ) ) ( not ( = UndefCntr0_undef132 0 ) ) ) ))
(assert ( or ( not ( = UndefCntr1_arg1 0 ) ) ( not ( = UndefCntr1_arg2 0 ) ) ( not ( = UndefCntr1_arg3 0 ) ) ( not ( = UndefCntr1_undef133 0 ) ) ( not ( = UndefCntr1_undef134 0 ) ) ( not ( = UndefCntr1_undef135 0 ) ) ( not ( = UndefCntr1_undef138 0 ) ) ( = UndefCntr1_CT 0 ) ))
(assert ( or ( and ( = UndefCntr1_arg1 0 ) ( = UndefCntr1_arg2 0 ) ( = UndefCntr1_arg3 0 ) ) ( or ( not ( = UndefCntr1_undef133 0 ) ) ( not ( = UndefCntr1_undef134 0 ) ) ( not ( = UndefCntr1_undef135 0 ) ) ( not ( = UndefCntr1_undef138 0 ) ) ) ))
(assert ( or ( and ( >= lam41n0 0 ) ( >= lam41n1 0 ) ( >= lam41n2 0 ) ( >= lam41n3 0 ) ( >= lam41n4 0 ) ( > ( + ( * 1 lam41n1 ) ( * Nl5CT1 lam41n2 ) ( * Nl5CT2 lam41n3 ) ( * Nl5CT3 lam41n4 ) ( - 1 ) ) 0 ) ( = ( + ( * ( - 1 ) lam41n1 ) ( * Nl5arg11 lam41n2 ) ( * Nl5arg12 lam41n3 ) ( * Nl5arg13 lam41n4 ) ) 0 ) ( = ( + ( * Nl5arg21 lam41n2 ) ( * Nl5arg22 lam41n3 ) ( * Nl5arg23 lam41n4 ) ) 0 ) ( = ( + ( * Nl5arg31 lam41n2 ) ( * Nl5arg32 lam41n3 ) ( * Nl5arg33 lam41n4 ) ) 0 ) ( = ( * 1 lam41n0 ) 0 ) ) ( and ( and ( >= lam42n0 0 ) ( >= lam42n1 0 ) ( >= lam42n2 0 ) ( >= lam42n3 0 ) ( >= lam42n4 0 ) ( > ( + ( * 1 lam42n1 ) ( * Nl5CT1 lam42n2 ) ( * Nl5CT2 lam42n3 ) ( * Nl5CT3 lam42n4 ) ( - 1 ( + 0 ( * ( - 1 ) UndefDef0undef127_CT ) ) ) ) 0 ) ( = ( + ( * ( - 1 ) lam42n1 ) ( * Nl5arg11 lam42n2 ) ( * Nl5arg12 lam42n3 ) ( * Nl5arg13 lam42n4 ) ( - ( * UndefDef0undef127_arg1 ( - 1 ) ) ) ) 0 ) ( = ( + ( * Nl5arg21 lam42n2 ) ( * Nl5arg22 lam42n3 ) ( * Nl5arg23 lam42n4 ) ( - ( * UndefDef0undef127_arg2 ( - 1 ) ) ) ) 0 ) ( = ( + ( * Nl5arg31 lam42n2 ) ( * Nl5arg32 lam42n3 ) ( * Nl5arg33 lam42n4 ) ( - ( * UndefDef0undef127_arg3 ( - 1 ) ) ) ) 0 ) ( = ( * 1 lam42n0 ) 0 ) ) ( and ( >= lam43n0 0 ) ( >= lam43n1 0 ) ( >= lam43n2 0 ) ( >= lam43n3 0 ) ( >= lam43n4 0 ) ( > ( + ( * 1 lam43n1 ) ( * Nl5CT1 lam43n2 ) ( * Nl5CT2 lam43n3 ) ( * Nl5CT3 lam43n4 ) ( - 1 ( + ( + 1 0 ) ( * 1 UndefDef0undef127_CT ) ) ) ) 0 ) ( = ( + ( * ( - 1 ) lam43n1 ) ( * Nl5arg11 lam43n2 ) ( * Nl5arg12 lam43n3 ) ( * Nl5arg13 lam43n4 ) ( - ( + ( - 1 ) ( * UndefDef0undef127_arg1 1 ) ) ) ) 0 ) ( = ( + ( * Nl5arg21 lam43n2 ) ( * Nl5arg22 lam43n3 ) ( * Nl5arg23 lam43n4 ) ( - ( * UndefDef0undef127_arg2 1 ) ) ) 0 ) ( = ( + ( * Nl5arg31 lam43n2 ) ( * Nl5arg32 lam43n3 ) ( * Nl5arg33 lam43n4 ) ( - ( * UndefDef0undef127_arg3 1 ) ) ) 0 ) ( = ( * 1 lam43n0 ) 0 ) ) ( or ( = UndefCntr0_undef127 0 ) ( and ( >= lam44n0 0 ) ( >= lam44n1 0 ) ( >= lam44n2 0 ) ( >= lam44n3 0 ) ( >= lam44n4 0 ) ( > ( + ( * 1 lam44n1 ) ( * Nl5CT1 lam44n2 ) ( * Nl5CT2 lam44n3 ) ( * Nl5CT3 lam44n4 ) ( - 1 ( + ( + ( + ( + ( + ( + ( + UndefCntr0_CT 0 ) 0 ) 0 ) ( * UndefCntr0_undef127 UndefDef0undef127_CT ) ) 0 ) 0 ) 0 ) ) ) 0 ) ( = ( + ( * ( - 1 ) lam44n1 ) ( * Nl5arg11 lam44n2 ) ( * Nl5arg12 lam44n3 ) ( * Nl5arg13 lam44n4 ) ( - ( + UndefCntr0_arg1 ( * UndefDef0undef127_arg1 UndefCntr0_undef127 ) ) ) ) 0 ) ( = ( + ( * Nl5arg21 lam44n2 ) ( * Nl5arg22 lam44n3 ) ( * Nl5arg23 lam44n4 ) ( - ( + UndefCntr0_arg2 ( * UndefDef0undef127_arg2 UndefCntr0_undef127 ) ) ) ) 0 ) ( = ( + ( * Nl5arg31 lam44n2 ) ( * Nl5arg32 lam44n3 ) ( * Nl5arg33 lam44n4 ) ( - ( + UndefCntr0_arg3 ( * UndefDef0undef127_arg3 UndefCntr0_undef127 ) ) ) ) 0 ) ( = ( - UndefCntr0_undef128 ) 0 ) ( = ( - UndefCntr0_undef129 ) 0 ) ( = ( + ( * 1 lam44n0 ) ( - UndefCntr0_undef132 ) ) 0 ) ) ) ) ))
(assert ( or ( and ( >= lam45n0 0 ) ( >= lam45n1 0 ) ( >= lam45n2 0 ) ( >= lam45n3 0 ) ( >= lam45n4 0 ) ( > ( + ( * 1 lam45n0 ) ( * 1 lam45n1 ) ( * Nl5CT1 lam45n2 ) ( * Nl5CT2 lam45n3 ) ( * Nl5CT3 lam45n4 ) ( - 1 ) ) 0 ) ( = ( + ( * ( - 1 ) lam45n0 ) ( * Nl5arg11 lam45n2 ) ( * Nl5arg12 lam45n3 ) ( * Nl5arg13 lam45n4 ) ) 0 ) ( = ( + ( * Nl5arg21 lam45n2 ) ( * Nl5arg22 lam45n3 ) ( * Nl5arg23 lam45n4 ) ) 0 ) ( = ( + ( * Nl5arg31 lam45n2 ) ( * Nl5arg32 lam45n3 ) ( * Nl5arg33 lam45n4 ) ) 0 ) ( = ( * ( - 1 ) lam45n1 ) 0 ) ) ( and ( and ( >= lam46n0 0 ) ( >= lam46n1 0 ) ( >= lam46n2 0 ) ( >= lam46n3 0 ) ( >= lam46n4 0 ) ( > ( + ( * 1 lam46n0 ) ( * 1 lam46n1 ) ( * Nl5CT1 lam46n2 ) ( * Nl5CT2 lam46n3 ) ( * Nl5CT3 lam46n4 ) ( - 1 ( + ( + 0 0 ) ( * 1 UndefDef1undef133_CT ) ) ) ) 0 ) ( = ( + ( * ( - 1 ) lam46n0 ) ( * Nl5arg11 lam46n2 ) ( * Nl5arg12 lam46n3 ) ( * Nl5arg13 lam46n4 ) ( - ( + ( - 1 ) ( * UndefDef1undef133_arg1 1 ) ) ) ) 0 ) ( = ( + ( * Nl5arg21 lam46n2 ) ( * Nl5arg22 lam46n3 ) ( * Nl5arg23 lam46n4 ) ( - ( * UndefDef1undef133_arg2 1 ) ) ) 0 ) ( = ( + ( * Nl5arg31 lam46n2 ) ( * Nl5arg32 lam46n3 ) ( * Nl5arg33 lam46n4 ) ( - ( * UndefDef1undef133_arg3 1 ) ) ) 0 ) ( = ( * ( - 1 ) lam46n1 ) 0 ) ) ( and ( >= lam47n0 0 ) ( >= lam47n1 0 ) ( >= lam47n2 0 ) ( >= lam47n3 0 ) ( >= lam47n4 0 ) ( > ( + ( * 1 lam47n0 ) ( * 1 lam47n1 ) ( * Nl5CT1 lam47n2 ) ( * Nl5CT2 lam47n3 ) ( * Nl5CT3 lam47n4 ) ( - 1 ( + 1 ( * ( - 1 ) UndefDef1undef133_CT ) ) ) ) 0 ) ( = ( + ( * ( - 1 ) lam47n0 ) ( * Nl5arg11 lam47n2 ) ( * Nl5arg12 lam47n3 ) ( * Nl5arg13 lam47n4 ) ( - ( * UndefDef1undef133_arg1 ( - 1 ) ) ) ) 0 ) ( = ( + ( * Nl5arg21 lam47n2 ) ( * Nl5arg22 lam47n3 ) ( * Nl5arg23 lam47n4 ) ( - ( * UndefDef1undef133_arg2 ( - 1 ) ) ) ) 0 ) ( = ( + ( * Nl5arg31 lam47n2 ) ( * Nl5arg32 lam47n3 ) ( * Nl5arg33 lam47n4 ) ( - ( * UndefDef1undef133_arg3 ( - 1 ) ) ) ) 0 ) ( = ( * ( - 1 ) lam47n1 ) 0 ) ) ( or ( = UndefCntr1_undef133 0 ) ( and ( >= lam48n0 0 ) ( >= lam48n1 0 ) ( >= lam48n2 0 ) ( >= lam48n3 0 ) ( >= lam48n4 0 ) ( > ( + ( * 1 lam48n0 ) ( * 1 lam48n1 ) ( * Nl5CT1 lam48n2 ) ( * Nl5CT2 lam48n3 ) ( * Nl5CT3 lam48n4 ) ( - 1 ( + ( + ( + ( + ( + ( + ( + UndefCntr1_CT 0 ) 0 ) 0 ) ( * UndefCntr1_undef133 UndefDef1undef133_CT ) ) 0 ) 0 ) 0 ) ) ) 0 ) ( = ( + ( * ( - 1 ) lam48n0 ) ( * Nl5arg11 lam48n2 ) ( * Nl5arg12 lam48n3 ) ( * Nl5arg13 lam48n4 ) ( - ( + UndefCntr1_arg1 ( * UndefDef1undef133_arg1 UndefCntr1_undef133 ) ) ) ) 0 ) ( = ( + ( * Nl5arg21 lam48n2 ) ( * Nl5arg22 lam48n3 ) ( * Nl5arg23 lam48n4 ) ( - ( + UndefCntr1_arg2 ( * UndefDef1undef133_arg2 UndefCntr1_undef133 ) ) ) ) 0 ) ( = ( + ( * Nl5arg31 lam48n2 ) ( * Nl5arg32 lam48n3 ) ( * Nl5arg33 lam48n4 ) ( - ( + UndefCntr1_arg3 ( * UndefDef1undef133_arg3 UndefCntr1_undef133 ) ) ) ) 0 ) ( = ( - UndefCntr1_undef134 ) 0 ) ( = ( - UndefCntr1_undef135 ) 0 ) ( = ( + ( * ( - 1 ) lam48n1 ) ( - UndefCntr1_undef138 ) ) 0 ) ) ) ) ))
(assert ( or ( = UndefCntr0_undef132 0 ) ( and ( and ( = UndefCntr0_arg1 0 ) ( = UndefCntr0_arg2 0 ) ( = UndefCntr0_arg3 0 ) ( = UndefCntr0_undef127 0 ) ( = UndefCntr0_undef128 0 ) ( = UndefCntr0_undef129 0 ) ) ( or ( and ( <= FV_undef132_0 0 ) ( <= ( + UndefCntr0_CT ( * UndefCntr0_undef132 FV_undef132_0 ) ( * UndefCntr0_arg1 FV_arg1_0 ) ( * UndefCntr0_arg2 FV_arg2_0 ) ( * UndefCntr0_arg3 FV_arg3_0 ) ( * UndefCntr0_undef127 FV_undef127_0 ) ( * UndefCntr0_undef128 FV_undef128_0 ) ( * UndefCntr0_undef129 FV_undef129_0 ) ) 0 ) ) ( and ( <= FV_undef132_0 0 ) ( <= ( + UndefCntr0_CT ( * UndefCntr0_undef132 FV_undef132_0 ) ( * UndefCntr0_arg1 FV_arg1_0 ) ( * UndefCntr0_arg2 FV_arg2_0 ) ( * UndefCntr0_arg3 FV_arg3_0 ) ( * UndefCntr0_undef127 FV_undef127_0 ) ( * UndefCntr0_undef128 FV_undef128_0 ) ( * UndefCntr0_undef129 FV_undef129_0 ) ) 0 ) ) ) ) ))
(assert ( or ( = UndefCntr1_undef138 0 ) ( and ( and ( = UndefCntr1_arg1 0 ) ( = UndefCntr1_arg2 0 ) ( = UndefCntr1_arg3 0 ) ( = UndefCntr1_undef133 0 ) ( = UndefCntr1_undef134 0 ) ( = UndefCntr1_undef135 0 ) ) ( or ( and ( <= ( + 1 ( * ( - 1 ) FV_undef138_1 ) ) 0 ) ( <= ( + UndefCntr1_CT ( * UndefCntr1_undef138 FV_undef138_1 ) ( * UndefCntr1_arg1 FV_arg1_1 ) ( * UndefCntr1_arg2 FV_arg2_1 ) ( * UndefCntr1_arg3 FV_arg3_1 ) ( * UndefCntr1_undef133 FV_undef133_1 ) ( * UndefCntr1_undef134 FV_undef134_1 ) ( * UndefCntr1_undef135 FV_undef135_1 ) ) 0 ) ) ( and ( <= ( + 1 ( * ( - 1 ) FV_undef138_1 ) ) 0 ) ( <= ( + UndefCntr1_CT ( * UndefCntr1_undef138 FV_undef138_1 ) ( * UndefCntr1_arg1 FV_arg1_1 ) ( * UndefCntr1_arg2 FV_arg2_1 ) ( * UndefCntr1_arg3 FV_arg3_1 ) ( * UndefCntr1_undef133 FV_undef133_1 ) ( * UndefCntr1_undef134 FV_undef134_1 ) ( * UndefCntr1_undef135 FV_undef135_1 ) ) 0 ) ) ) ) ))
(assert ( and ( >= lam49n0 0 ) ( >= lam49n1 0 ) ( >= lam49n2 0 ) ( >= lam49n3 0 ) ( > ( + ( * Nl5CT1 lam49n1 ) ( * Nl5CT2 lam49n2 ) ( * Nl5CT3 lam49n3 ) ( - 1 ) ) 0 ) ( = ( + ( * 1 lam49n0 ) ( * Nl5arg11 lam49n1 ) ( * Nl5arg12 lam49n2 ) ( * Nl5arg13 lam49n3 ) ) 0 ) ( = ( + ( * Nl5arg21 lam49n1 ) ( * Nl5arg22 lam49n2 ) ( * Nl5arg23 lam49n3 ) ) 0 ) ( = ( + ( * Nl5arg31 lam49n1 ) ( * Nl5arg32 lam49n2 ) ( * Nl5arg33 lam49n3 ) ) 0 ) ))
(assert ( and ( and ( <= ( + Nl5CT1 ( * Nl5arg11 FV_arg1_3 ) ( * Nl5arg21 FV_arg2_3 ) ( * Nl5arg31 FV_arg3_3 ) ) 0 ) ( <= ( + Nl5CT2 ( * Nl5arg12 FV_arg1_3 ) ( * Nl5arg22 FV_arg2_3 ) ( * Nl5arg32 FV_arg3_3 ) ) 0 ) ( <= ( + Nl5CT3 ( * Nl5arg13 FV_arg1_3 ) ( * Nl5arg23 FV_arg2_3 ) ( * Nl5arg33 FV_arg3_3 ) ) 0 ) ) ( or ( and ( <= ( * ( - 1 ) FV_undef127_3 ) 0 ) ( <= FV_undef132_3 0 ) ( <= ( + 1 ( * ( - 1 ) FV_arg1_3 ) ) 0 ) ( <= ( + 1 FV_undef127_3 ( * ( - 1 ) FV_arg1_3 ) ) 0 ) ) ( and ( <= ( + ( * ( - 1 ) FV_arg1_3 ) FV_undef133_3 ) 0 ) ( <= ( + 1 ( * ( - 1 ) FV_arg1_3 ) ) 0 ) ( <= ( + 1 ( * ( - 1 ) FV_undef133_3 ) ) 0 ) ( <= ( + 1 ( * ( - 1 ) FV_undef138_3 ) ) 0 ) ) ) ))
(check-sat)
(exit)
